0 0 2 0
2 0 2 1
1 0 1 0
5 0 1 8
3 0 1 11
0 1 0 1
3 1 0 16
0 2 1 16
2 1 3 6
1 1 2 8
5 1 3 11
2 2 5 10
4 0 2 13
3 2 2 22
2 3 0 21
5 2 5 18
4 1 1 22
3 3 3 27
1 2 4 13
2 4 1 30
4 2 4 25
1 3 5 27
0 3 3 30
5 3 0 30
3 4 4 30
2 5 4 38
1 4 0 40
0 4 5 37
5 4 4 45
4 3 5 40
5 5 2 49
4 4 0 50
1 5 3 50
3 5 5 44
0 5 4 49
4 5 3 54

